Maximize
  - 2.6668746221208 edge_0_1_0_0 - 3.385816541643 edge_0_2_0_0
   - 3.0169753220596 edge_0_3_0_0 - 3.0004850915286 edge_0_4_0_0
   - 3.3224873803082 edge_0_5_0_0 - 3.175972996986 edge_0_6_0_0
   - 1.2360670231644 edge_0_7_0_0 - 3.5276004041376 edge_0_13_0_0
   - 2.103799507408 edge_0_16_0_0 + 1.481462615278848 edge_1_2_0_0
   + 0.4076853164675439 edge_1_3_0_0 + 0.2255582410936173 edge_1_4_0_0
   + 0.6809132992218099 edge_1_5_0_0 + 0.6207418831263011 edge_1_6_0_0
   + 0.5345735941804499 edge_1_7_0_0 - 0.00327022723223904 edge_1_8_0_0
   - 0.0434947786986883 edge_1_12_0_0 + 0.3284116732042476 edge_1_13_0_0
   + 0.0550792947360826 edge_1_15_0_0 - 0.060481044780196 edge_1_16_0_0
   - 0.7207965955720013 edge_1_21_0_0 - 0.4403525258343518 edge_1_22_0_0
   - 0.2497309924748894 edge_1_24_0_0 + 0.7939791697546651 edge_1_25_0_0
   + 1.511464709139195 edge_2_1_0_0 + 1.376099700015611 edge_2_3_0_0
   + 1.387960468683099 edge_2_4_0_0 + 0.3880386290319237 edge_2_5_0_0
   + 0.9765145667858571 edge_2_6_0_0 + 0.6585682825906801 edge_2_7_0_0
   - 0.0923619787443209 edge_2_8_0_0 - 0.3338432835530735 edge_2_12_0_0
   + 0.6880954581527636 edge_2_13_0_0 - 0.2530931534117012 edge_2_15_0_0
   + 0.1895580541201929 edge_2_16_0_0 - 0.6865490667668028 edge_2_21_0_0
   - 0.4209861724920204 edge_2_22_0_0 - 0.5364825229515361 edge_2_24_0_0
   - 0.0147414127790737 edge_3_1_0_0 - 0.1265905385820672 edge_3_2_0_0
   - 0.6225370050785917 edge_3_4_0_0 + 0.0037137037033318 edge_3_5_0_0
   - 0.3708377175502667 edge_3_6_0_0 - 0.4898562125930546 edge_3_7_0_0
   + 0.1144911850989484 edge_4_1_0_0 - 0.1199838909857985 edge_4_2_0_0
   + 0.1957919093433887 edge_4_3_0_0 + 2.383334421743172 edge_4_5_0_0
   + 3.184236773083208 edge_4_6_0_0 + 0.6362724715875868 edge_4_7_0_0
   - 0.5258100852609284 edge_4_8_0_0 - 0.3424316133376826 edge_4_12_0_0
   - 0.2065066187007825 edge_4_13_0_0 + 0.0538438355996257 edge_4_15_0_0
   - 0.198149563496747 edge_4_16_0_0 - 0.9123763438844811 edge_4_22_0_0
   + 0.2698148552653467 edge_4_25_0_0 - 0.5442417414392345 edge_5_1_0_0
   - 0.8754128015985604 edge_5_2_0_0 + 0.1947926401411211 edge_5_3_0_0
   + 0.5658456255741658 edge_5_4_0_0 + 0.9812371107922327 edge_5_6_0_0
   + 0.5992689609414631 edge_5_7_0_0 - 0.2452006018738995 edge_6_1_0_0
   - 0.5160328006241757 edge_6_2_0_0 - 0.3112685620283806 edge_6_3_0_0
   + 0.7468960733002826 edge_6_4_0_0 + 1.058049589773157 edge_6_5_0_0
   + 0.0462327893163514 edge_6_7_0_0 - 0.5814111374660077 edge_6_13_0_0
   - 0.7055337947695913 edge_6_16_0_0 + 0.9865137927402926 edge_7_1_0_0
   + 1.044025138052159 edge_7_2_0_0 + 0.3192491390672147 edge_7_3_0_0
   + 2.296680139112351 edge_7_4_0_0 + 2.051447560028851 edge_7_5_0_0
   + 1.326195521086269 edge_7_6_0_0 + 0.1838936616192651 edge_7_8_0_0
   + 0.7853972422897423 edge_7_12_0_0 + 0.7195236014781441 edge_7_13_0_0
   + 0.4233719516142256 edge_7_15_0_0 + 0.8756365374190138 edge_7_16_0_0
   - 0.5096036804054258 edge_7_21_0_0 + 0.4777196580898134 edge_7_22_0_0
   + 0.4995865577504683 edge_7_24_0_0 + 1.118928600645203 edge_7_25_0_0
   - 0.0570357708089757 edge_8_12_0_0 - 1.008156893919843 edge_8_21_0_0
   - 1.184205017389387 edge_12_2_0_0 - 0.6627146501006987 edge_12_3_0_0
   - 0.5934755794547898 edge_12_4_0_0 - 0.7339287461247068 edge_12_5_0_0
   - 0.5775584324608553 edge_12_6_0_0 - 0.4905585344644851 edge_12_7_0_0
   + 0.353941527938524 edge_12_8_0_0 + 0.806751372668832 edge_12_13_0_0
   + 0.211278631047915 edge_12_15_0_0 + 0.2187171476375274 edge_12_16_0_0
   - 0.4745292751514875 edge_12_21_0_0 - 0.3401230802652905 edge_12_22_0_0
   - 1.045783033870346 edge_12_24_0_0 - 0.291862291516898 edge_12_25_0_0
   - 0.8985718720281574 edge_13_1_0_0 - 0.968210937929982 edge_13_2_0_0
   - 0.7097455143107508 edge_13_4_0_0 - 0.6206406784258716 edge_13_5_0_0
   - 0.6656055081221643 edge_13_7_0_0 + 0.264147381836182 edge_13_8_0_0
   + 1.073758904983023 edge_13_12_0_0 + 0.046530704847736 edge_13_15_0_0
   + 0.4471045097853161 edge_13_16_0_0 - 1.483136795328269 edge_13_22_0_0
   - 0.4943060317046761 edge_16_1_0_0 - 0.6196218706374463 edge_16_2_0_0
   - 0.3935231275265368 edge_16_3_0_0 - 0.3714588478468708 edge_16_4_0_0
   + 0.070774279829027 edge_16_5_0_0 - 0.1030212141765069 edge_16_6_0_0
   - 0.2067900219034818 edge_16_7_0_0 + 0.7409288287956659 edge_16_8_0_0
   + 1.276581360300771 edge_16_12_0_0 + 1.704528448937226 edge_16_13_0_0
   + 0.6070901527643981 edge_16_15_0_0 - 0.0912509277086031 edge_16_21_0_0
   + 0.7471358622724968 edge_16_22_0_0 - 0.0509336196374084 edge_16_24_0_0
   + 0.5704418481415292 edge_16_25_0_0 - 0.393337251162418 edge_21_24_0_0
   + 0.0268011259342668 edge_21_25_0_0 + 0.1852941109553618 edge_22_8_0_0
   + 0.1293285740472383 edge_22_12_0_0 - 0.3977999268111141 edge_22_13_0_0
   - 0.5078251843201778 edge_22_16_0_0 + 2.566069614964679 edge_22_21_0_0
   + 0.7977330375839353 edge_22_24_0_0 + 0.5225813416688039 edge_22_25_0_0
   - 0.188809 edge_24_1_0_0 - 0.9389538077414015 edge_24_3_0_0
   - 0.4032698959344843 edge_24_12_0_0 - 0.1351861967572935 edge_24_15_0_0
   + 0.6036095297420726 edge_24_21_0_0 + 0.6583688433869683 edge_24_22_0_0
   + 0.3139156448854361 edge_24_25_0_0 - 0.646148659094643 edge_25_24_0_0
Subject To
 one_parent_1: edge_0_1_0_0 + edge_2_1_0_0 + edge_3_1_0_0 + edge_4_1_0_0
   + edge_5_1_0_0 + edge_6_1_0_0 + edge_7_1_0_0 + edge_13_1_0_0
   + edge_16_1_0_0 + edge_24_1_0_0 = 1
 consume_one_flow_unit_1: flow_0_1_0_0 - flow_1_2_0_0 - flow_1_3_0_0
   - flow_1_4_0_0 - flow_1_5_0_0 - flow_1_6_0_0 - flow_1_7_0_0
   - flow_1_8_0_0 - flow_1_12_0_0 - flow_1_13_0_0 - flow_1_15_0_0
   - flow_1_16_0_0 - flow_1_21_0_0 - flow_1_22_0_0 - flow_1_24_0_0
   - flow_1_25_0_0 + flow_2_1_0_0 + flow_3_1_0_0 + flow_4_1_0_0
   + flow_5_1_0_0 + flow_6_1_0_0 + flow_7_1_0_0 + flow_13_1_0_0
   + flow_16_1_0_0 + flow_24_1_0_0 = 1
 one_parent_2: edge_0_2_0_0 + edge_1_2_0_0 + edge_3_2_0_0 + edge_4_2_0_0
   + edge_5_2_0_0 + edge_6_2_0_0 + edge_7_2_0_0 + edge_12_2_0_0
   + edge_13_2_0_0 + edge_16_2_0_0 = 1
 consume_one_flow_unit_2: flow_0_2_0_0 + flow_1_2_0_0 - flow_2_1_0_0
   - flow_2_3_0_0 - flow_2_4_0_0 - flow_2_5_0_0 - flow_2_6_0_0
   - flow_2_7_0_0 - flow_2_8_0_0 - flow_2_12_0_0 - flow_2_13_0_0
   - flow_2_15_0_0 - flow_2_16_0_0 - flow_2_21_0_0 - flow_2_22_0_0
   - flow_2_24_0_0 + flow_3_2_0_0 + flow_4_2_0_0 + flow_5_2_0_0
   + flow_6_2_0_0 + flow_7_2_0_0 + flow_12_2_0_0 + flow_13_2_0_0
   + flow_16_2_0_0 = 1
 one_parent_3: edge_0_3_0_0 + edge_1_3_0_0 + edge_2_3_0_0 + edge_4_3_0_0
   + edge_5_3_0_0 + edge_6_3_0_0 + edge_7_3_0_0 + edge_12_3_0_0
   + edge_16_3_0_0 + edge_24_3_0_0 = 1
 consume_one_flow_unit_3: flow_0_3_0_0 + flow_1_3_0_0 + flow_2_3_0_0
   - flow_3_1_0_0 - flow_3_2_0_0 - flow_3_4_0_0 - flow_3_5_0_0
   - flow_3_6_0_0 - flow_3_7_0_0 + flow_4_3_0_0 + flow_5_3_0_0
   + flow_6_3_0_0 + flow_7_3_0_0 + flow_12_3_0_0 + flow_16_3_0_0
   + flow_24_3_0_0 = 1
 one_parent_4: edge_0_4_0_0 + edge_1_4_0_0 + edge_2_4_0_0 + edge_3_4_0_0
   + edge_5_4_0_0 + edge_6_4_0_0 + edge_7_4_0_0 + edge_12_4_0_0
   + edge_13_4_0_0 + edge_16_4_0_0 = 1
 consume_one_flow_unit_4: flow_0_4_0_0 + flow_1_4_0_0 + flow_2_4_0_0
   + flow_3_4_0_0 - flow_4_1_0_0 - flow_4_2_0_0 - flow_4_3_0_0
   - flow_4_5_0_0 - flow_4_6_0_0 - flow_4_7_0_0 - flow_4_8_0_0
   - flow_4_12_0_0 - flow_4_13_0_0 - flow_4_15_0_0 - flow_4_16_0_0
   - flow_4_22_0_0 - flow_4_25_0_0 + flow_5_4_0_0 + flow_6_4_0_0
   + flow_7_4_0_0 + flow_12_4_0_0 + flow_13_4_0_0 + flow_16_4_0_0 = 1
 one_parent_5: edge_0_5_0_0 + edge_1_5_0_0 + edge_2_5_0_0 + edge_3_5_0_0
   + edge_4_5_0_0 + edge_6_5_0_0 + edge_7_5_0_0 + edge_12_5_0_0
   + edge_13_5_0_0 + edge_16_5_0_0 = 1
 consume_one_flow_unit_5: flow_0_5_0_0 + flow_1_5_0_0 + flow_2_5_0_0
   + flow_3_5_0_0 + flow_4_5_0_0 - flow_5_1_0_0 - flow_5_2_0_0
   - flow_5_3_0_0 - flow_5_4_0_0 - flow_5_6_0_0 - flow_5_7_0_0
   + flow_6_5_0_0 + flow_7_5_0_0 + flow_12_5_0_0 + flow_13_5_0_0
   + flow_16_5_0_0 = 1
 one_parent_6: edge_0_6_0_0 + edge_1_6_0_0 + edge_2_6_0_0 + edge_3_6_0_0
   + edge_4_6_0_0 + edge_5_6_0_0 + edge_7_6_0_0 + edge_12_6_0_0
   + edge_16_6_0_0 = 1
 consume_one_flow_unit_6: flow_0_6_0_0 + flow_1_6_0_0 + flow_2_6_0_0
   + flow_3_6_0_0 + flow_4_6_0_0 + flow_5_6_0_0 - flow_6_1_0_0
   - flow_6_2_0_0 - flow_6_3_0_0 - flow_6_4_0_0 - flow_6_5_0_0
   - flow_6_7_0_0 - flow_6_13_0_0 - flow_6_16_0_0 + flow_7_6_0_0
   + flow_12_6_0_0 + flow_16_6_0_0 = 1
 one_parent_7: edge_0_7_0_0 + edge_1_7_0_0 + edge_2_7_0_0 + edge_3_7_0_0
   + edge_4_7_0_0 + edge_5_7_0_0 + edge_6_7_0_0 + edge_12_7_0_0
   + edge_13_7_0_0 + edge_16_7_0_0 = 1
 consume_one_flow_unit_7: flow_0_7_0_0 + flow_1_7_0_0 + flow_2_7_0_0
   + flow_3_7_0_0 + flow_4_7_0_0 + flow_5_7_0_0 + flow_6_7_0_0
   - flow_7_1_0_0 - flow_7_2_0_0 - flow_7_3_0_0 - flow_7_4_0_0
   - flow_7_5_0_0 - flow_7_6_0_0 - flow_7_8_0_0 - flow_7_12_0_0
   - flow_7_13_0_0 - flow_7_15_0_0 - flow_7_16_0_0 - flow_7_21_0_0
   - flow_7_22_0_0 - flow_7_24_0_0 - flow_7_25_0_0 + flow_12_7_0_0
   + flow_13_7_0_0 + flow_16_7_0_0 = 1
 one_parent_8: edge_1_8_0_0 + edge_2_8_0_0 + edge_4_8_0_0 + edge_7_8_0_0
   + edge_12_8_0_0 + edge_13_8_0_0 + edge_16_8_0_0 + edge_22_8_0_0 = 1
 consume_one_flow_unit_8: flow_1_8_0_0 + flow_2_8_0_0 + flow_4_8_0_0
   + flow_7_8_0_0 - flow_8_12_0_0 - flow_8_21_0_0 + flow_12_8_0_0
   + flow_13_8_0_0 + flow_16_8_0_0 + flow_22_8_0_0 = 1
 one_parent_9: = 1
 consume_one_flow_unit_9: = 1
 one_parent_10: = 1
 consume_one_flow_unit_10: = 1
 one_parent_11: = 1
 consume_one_flow_unit_11: = 1
 one_parent_12: edge_1_12_0_0 + edge_2_12_0_0 + edge_4_12_0_0
   + edge_7_12_0_0 + edge_8_12_0_0 + edge_13_12_0_0 + edge_16_12_0_0
   + edge_22_12_0_0 + edge_24_12_0_0 = 1
 consume_one_flow_unit_12: flow_1_12_0_0 + flow_2_12_0_0 + flow_4_12_0_0
   + flow_7_12_0_0 + flow_8_12_0_0 - flow_12_2_0_0 - flow_12_3_0_0
   - flow_12_4_0_0 - flow_12_5_0_0 - flow_12_6_0_0 - flow_12_7_0_0
   - flow_12_8_0_0 - flow_12_13_0_0 - flow_12_15_0_0 - flow_12_16_0_0
   - flow_12_21_0_0 - flow_12_22_0_0 - flow_12_24_0_0 - flow_12_25_0_0
   + flow_13_12_0_0 + flow_16_12_0_0 + flow_22_12_0_0 + flow_24_12_0_0 = 1
 one_parent_13: edge_0_13_0_0 + edge_1_13_0_0 + edge_2_13_0_0
   + edge_4_13_0_0 + edge_6_13_0_0 + edge_7_13_0_0 + edge_12_13_0_0
   + edge_16_13_0_0 + edge_22_13_0_0 = 1
 consume_one_flow_unit_13: flow_0_13_0_0 + flow_1_13_0_0 + flow_2_13_0_0
   + flow_4_13_0_0 + flow_6_13_0_0 + flow_7_13_0_0 + flow_12_13_0_0
   - flow_13_1_0_0 - flow_13_2_0_0 - flow_13_4_0_0 - flow_13_5_0_0
   - flow_13_7_0_0 - flow_13_8_0_0 - flow_13_12_0_0 - flow_13_15_0_0
   - flow_13_16_0_0 - flow_13_22_0_0 + flow_16_13_0_0 + flow_22_13_0_0 = 1
 one_parent_14: = 1
 consume_one_flow_unit_14: = 1
 one_parent_15: edge_1_15_0_0 + edge_2_15_0_0 + edge_4_15_0_0
   + edge_7_15_0_0 + edge_12_15_0_0 + edge_13_15_0_0 + edge_16_15_0_0
   + edge_24_15_0_0 = 1
 consume_one_flow_unit_15: flow_1_15_0_0 + flow_2_15_0_0 + flow_4_15_0_0
   + flow_7_15_0_0 + flow_12_15_0_0 + flow_13_15_0_0 + flow_16_15_0_0
   + flow_24_15_0_0 = 1
 one_parent_16: edge_0_16_0_0 + edge_1_16_0_0 + edge_2_16_0_0
   + edge_4_16_0_0 + edge_6_16_0_0 + edge_7_16_0_0 + edge_12_16_0_0
   + edge_13_16_0_0 + edge_22_16_0_0 = 1
 consume_one_flow_unit_16: flow_0_16_0_0 + flow_1_16_0_0 + flow_2_16_0_0
   + flow_4_16_0_0 + flow_6_16_0_0 + flow_7_16_0_0 + flow_12_16_0_0
   + flow_13_16_0_0 - flow_16_1_0_0 - flow_16_2_0_0 - flow_16_3_0_0
   - flow_16_4_0_0 - flow_16_5_0_0 - flow_16_6_0_0 - flow_16_7_0_0
   - flow_16_8_0_0 - flow_16_12_0_0 - flow_16_13_0_0 - flow_16_15_0_0
   - flow_16_21_0_0 - flow_16_22_0_0 - flow_16_24_0_0 - flow_16_25_0_0
   + flow_22_16_0_0 = 1
 one_parent_17: = 1
 consume_one_flow_unit_17: = 1
 one_parent_18: = 1
 consume_one_flow_unit_18: = 1
 one_parent_19: = 1
 consume_one_flow_unit_19: = 1
 one_parent_20: = 1
 consume_one_flow_unit_20: = 1
 one_parent_21: edge_1_21_0_0 + edge_2_21_0_0 + edge_7_21_0_0
   + edge_8_21_0_0 + edge_12_21_0_0 + edge_16_21_0_0 + edge_22_21_0_0
   + edge_24_21_0_0 = 1
 consume_one_flow_unit_21: flow_1_21_0_0 + flow_2_21_0_0 + flow_7_21_0_0
   + flow_8_21_0_0 + flow_12_21_0_0 + flow_16_21_0_0 - flow_21_24_0_0
   - flow_21_25_0_0 + flow_22_21_0_0 + flow_24_21_0_0 = 1
 one_parent_22: edge_1_22_0_0 + edge_2_22_0_0 + edge_4_22_0_0
   + edge_7_22_0_0 + edge_12_22_0_0 + edge_13_22_0_0 + edge_16_22_0_0
   + edge_24_22_0_0 = 1
 consume_one_flow_unit_22: flow_1_22_0_0 + flow_2_22_0_0 + flow_4_22_0_0
   + flow_7_22_0_0 + flow_12_22_0_0 + flow_13_22_0_0 + flow_16_22_0_0
   - flow_22_8_0_0 - flow_22_12_0_0 - flow_22_13_0_0 - flow_22_16_0_0
   - flow_22_21_0_0 - flow_22_24_0_0 - flow_22_25_0_0 + flow_24_22_0_0 = 1
 one_parent_23: = 1
 consume_one_flow_unit_23: = 1
 one_parent_24: edge_1_24_0_0 + edge_2_24_0_0 + edge_7_24_0_0
   + edge_12_24_0_0 + edge_16_24_0_0 + edge_21_24_0_0 + edge_22_24_0_0
   + edge_25_24_0_0 = 1
 consume_one_flow_unit_24: flow_1_24_0_0 + flow_2_24_0_0 + flow_7_24_0_0
   + flow_12_24_0_0 + flow_16_24_0_0 + flow_21_24_0_0 + flow_22_24_0_0
   - flow_24_1_0_0 - flow_24_3_0_0 - flow_24_12_0_0 - flow_24_15_0_0
   - flow_24_21_0_0 - flow_24_22_0_0 - flow_24_25_0_0 + flow_25_24_0_0 = 1
 one_parent_25: edge_1_25_0_0 + edge_4_25_0_0 + edge_7_25_0_0
   + edge_12_25_0_0 + edge_16_25_0_0 + edge_21_25_0_0 + edge_22_25_0_0
   + edge_24_25_0_0 = 1
 consume_one_flow_unit_25: flow_1_25_0_0 + flow_4_25_0_0 + flow_7_25_0_0
   + flow_12_25_0_0 + flow_16_25_0_0 + flow_21_25_0_0 + flow_22_25_0_0
   + flow_24_25_0_0 - flow_25_24_0_0 = 1
 root_flow: flow_0_1_0_0 + flow_0_2_0_0 + flow_0_3_0_0 + flow_0_4_0_0
   + flow_0_5_0_0 + flow_0_6_0_0 + flow_0_7_0_0 + flow_0_13_0_0
   + flow_0_16_0_0 = 25
 inactive_no_flow_0_1_0_0: flow_0_1_0_0 - 1000 edge_0_1_0_0 <= 0
 inactive_no_flow_0_2_0_0: flow_0_2_0_0 - 1000 edge_0_2_0_0 <= 0
 inactive_no_flow_0_3_0_0: flow_0_3_0_0 - 1000 edge_0_3_0_0 <= 0
 inactive_no_flow_0_4_0_0: flow_0_4_0_0 - 1000 edge_0_4_0_0 <= 0
 inactive_no_flow_0_5_0_0: flow_0_5_0_0 - 1000 edge_0_5_0_0 <= 0
 inactive_no_flow_0_6_0_0: flow_0_6_0_0 - 1000 edge_0_6_0_0 <= 0
 inactive_no_flow_0_7_0_0: flow_0_7_0_0 - 1000 edge_0_7_0_0 <= 0
 inactive_no_flow_0_13_0_0: flow_0_13_0_0 - 1000 edge_0_13_0_0 <= 0
 inactive_no_flow_0_16_0_0: flow_0_16_0_0 - 1000 edge_0_16_0_0 <= 0
 inactive_no_flow_1_2_0_0: flow_1_2_0_0 - 1000 edge_1_2_0_0 <= 0
 inactive_no_flow_1_3_0_0: flow_1_3_0_0 - 1000 edge_1_3_0_0 <= 0
 inactive_no_flow_1_4_0_0: flow_1_4_0_0 - 1000 edge_1_4_0_0 <= 0
 inactive_no_flow_1_5_0_0: flow_1_5_0_0 - 1000 edge_1_5_0_0 <= 0
 inactive_no_flow_1_6_0_0: flow_1_6_0_0 - 1000 edge_1_6_0_0 <= 0
 inactive_no_flow_1_7_0_0: flow_1_7_0_0 - 1000 edge_1_7_0_0 <= 0
 inactive_no_flow_1_8_0_0: flow_1_8_0_0 - 1000 edge_1_8_0_0 <= 0
 inactive_no_flow_1_12_0_0: flow_1_12_0_0 - 1000 edge_1_12_0_0 <= 0
 inactive_no_flow_1_13_0_0: flow_1_13_0_0 - 1000 edge_1_13_0_0 <= 0
 inactive_no_flow_1_15_0_0: flow_1_15_0_0 - 1000 edge_1_15_0_0 <= 0
 inactive_no_flow_1_16_0_0: flow_1_16_0_0 - 1000 edge_1_16_0_0 <= 0
 inactive_no_flow_1_21_0_0: flow_1_21_0_0 - 1000 edge_1_21_0_0 <= 0
 inactive_no_flow_1_22_0_0: flow_1_22_0_0 - 1000 edge_1_22_0_0 <= 0
 inactive_no_flow_1_24_0_0: flow_1_24_0_0 - 1000 edge_1_24_0_0 <= 0
 inactive_no_flow_1_25_0_0: flow_1_25_0_0 - 1000 edge_1_25_0_0 <= 0
 inactive_no_flow_2_1_0_0: flow_2_1_0_0 - 1000 edge_2_1_0_0 <= 0
 inactive_no_flow_2_3_0_0: flow_2_3_0_0 - 1000 edge_2_3_0_0 <= 0
 inactive_no_flow_2_4_0_0: flow_2_4_0_0 - 1000 edge_2_4_0_0 <= 0
 inactive_no_flow_2_5_0_0: flow_2_5_0_0 - 1000 edge_2_5_0_0 <= 0
 inactive_no_flow_2_6_0_0: flow_2_6_0_0 - 1000 edge_2_6_0_0 <= 0
 inactive_no_flow_2_7_0_0: flow_2_7_0_0 - 1000 edge_2_7_0_0 <= 0
 inactive_no_flow_2_8_0_0: flow_2_8_0_0 - 1000 edge_2_8_0_0 <= 0
 inactive_no_flow_2_12_0_0: flow_2_12_0_0 - 1000 edge_2_12_0_0 <= 0
 inactive_no_flow_2_13_0_0: flow_2_13_0_0 - 1000 edge_2_13_0_0 <= 0
 inactive_no_flow_2_15_0_0: flow_2_15_0_0 - 1000 edge_2_15_0_0 <= 0
 inactive_no_flow_2_16_0_0: flow_2_16_0_0 - 1000 edge_2_16_0_0 <= 0
 inactive_no_flow_2_21_0_0: flow_2_21_0_0 - 1000 edge_2_21_0_0 <= 0
 inactive_no_flow_2_22_0_0: flow_2_22_0_0 - 1000 edge_2_22_0_0 <= 0
 inactive_no_flow_2_24_0_0: flow_2_24_0_0 - 1000 edge_2_24_0_0 <= 0
 inactive_no_flow_3_1_0_0: flow_3_1_0_0 - 1000 edge_3_1_0_0 <= 0
 inactive_no_flow_3_2_0_0: flow_3_2_0_0 - 1000 edge_3_2_0_0 <= 0
 inactive_no_flow_3_4_0_0: flow_3_4_0_0 - 1000 edge_3_4_0_0 <= 0
 inactive_no_flow_3_5_0_0: flow_3_5_0_0 - 1000 edge_3_5_0_0 <= 0
 inactive_no_flow_3_6_0_0: flow_3_6_0_0 - 1000 edge_3_6_0_0 <= 0
 inactive_no_flow_3_7_0_0: flow_3_7_0_0 - 1000 edge_3_7_0_0 <= 0
 inactive_no_flow_4_1_0_0: flow_4_1_0_0 - 1000 edge_4_1_0_0 <= 0
 inactive_no_flow_4_2_0_0: flow_4_2_0_0 - 1000 edge_4_2_0_0 <= 0
 inactive_no_flow_4_3_0_0: flow_4_3_0_0 - 1000 edge_4_3_0_0 <= 0
 inactive_no_flow_4_5_0_0: flow_4_5_0_0 - 1000 edge_4_5_0_0 <= 0
 inactive_no_flow_4_6_0_0: flow_4_6_0_0 - 1000 edge_4_6_0_0 <= 0
 inactive_no_flow_4_7_0_0: flow_4_7_0_0 - 1000 edge_4_7_0_0 <= 0
 inactive_no_flow_4_8_0_0: flow_4_8_0_0 - 1000 edge_4_8_0_0 <= 0
 inactive_no_flow_4_12_0_0: flow_4_12_0_0 - 1000 edge_4_12_0_0 <= 0
 inactive_no_flow_4_13_0_0: flow_4_13_0_0 - 1000 edge_4_13_0_0 <= 0
 inactive_no_flow_4_15_0_0: flow_4_15_0_0 - 1000 edge_4_15_0_0 <= 0
 inactive_no_flow_4_16_0_0: flow_4_16_0_0 - 1000 edge_4_16_0_0 <= 0
 inactive_no_flow_4_22_0_0: flow_4_22_0_0 - 1000 edge_4_22_0_0 <= 0
 inactive_no_flow_4_25_0_0: flow_4_25_0_0 - 1000 edge_4_25_0_0 <= 0
 inactive_no_flow_5_1_0_0: flow_5_1_0_0 - 1000 edge_5_1_0_0 <= 0
 inactive_no_flow_5_2_0_0: flow_5_2_0_0 - 1000 edge_5_2_0_0 <= 0
 inactive_no_flow_5_3_0_0: flow_5_3_0_0 - 1000 edge_5_3_0_0 <= 0
 inactive_no_flow_5_4_0_0: flow_5_4_0_0 - 1000 edge_5_4_0_0 <= 0
 inactive_no_flow_5_6_0_0: flow_5_6_0_0 - 1000 edge_5_6_0_0 <= 0
 inactive_no_flow_5_7_0_0: flow_5_7_0_0 - 1000 edge_5_7_0_0 <= 0
 inactive_no_flow_6_1_0_0: flow_6_1_0_0 - 1000 edge_6_1_0_0 <= 0
 inactive_no_flow_6_2_0_0: flow_6_2_0_0 - 1000 edge_6_2_0_0 <= 0
 inactive_no_flow_6_3_0_0: flow_6_3_0_0 - 1000 edge_6_3_0_0 <= 0
 inactive_no_flow_6_4_0_0: flow_6_4_0_0 - 1000 edge_6_4_0_0 <= 0
 inactive_no_flow_6_5_0_0: flow_6_5_0_0 - 1000 edge_6_5_0_0 <= 0
 inactive_no_flow_6_7_0_0: flow_6_7_0_0 - 1000 edge_6_7_0_0 <= 0
 inactive_no_flow_6_13_0_0: flow_6_13_0_0 - 1000 edge_6_13_0_0 <= 0
 inactive_no_flow_6_16_0_0: flow_6_16_0_0 - 1000 edge_6_16_0_0 <= 0
 inactive_no_flow_7_1_0_0: flow_7_1_0_0 - 1000 edge_7_1_0_0 <= 0
 inactive_no_flow_7_2_0_0: flow_7_2_0_0 - 1000 edge_7_2_0_0 <= 0
 inactive_no_flow_7_3_0_0: flow_7_3_0_0 - 1000 edge_7_3_0_0 <= 0
 inactive_no_flow_7_4_0_0: flow_7_4_0_0 - 1000 edge_7_4_0_0 <= 0
 inactive_no_flow_7_5_0_0: flow_7_5_0_0 - 1000 edge_7_5_0_0 <= 0
 inactive_no_flow_7_6_0_0: flow_7_6_0_0 - 1000 edge_7_6_0_0 <= 0
 inactive_no_flow_7_8_0_0: flow_7_8_0_0 - 1000 edge_7_8_0_0 <= 0
 inactive_no_flow_7_12_0_0: flow_7_12_0_0 - 1000 edge_7_12_0_0 <= 0
 inactive_no_flow_7_13_0_0: flow_7_13_0_0 - 1000 edge_7_13_0_0 <= 0
 inactive_no_flow_7_15_0_0: flow_7_15_0_0 - 1000 edge_7_15_0_0 <= 0
 inactive_no_flow_7_16_0_0: flow_7_16_0_0 - 1000 edge_7_16_0_0 <= 0
 inactive_no_flow_7_21_0_0: flow_7_21_0_0 - 1000 edge_7_21_0_0 <= 0
 inactive_no_flow_7_22_0_0: flow_7_22_0_0 - 1000 edge_7_22_0_0 <= 0
 inactive_no_flow_7_24_0_0: flow_7_24_0_0 - 1000 edge_7_24_0_0 <= 0
 inactive_no_flow_7_25_0_0: flow_7_25_0_0 - 1000 edge_7_25_0_0 <= 0
 inactive_no_flow_8_12_0_0: flow_8_12_0_0 - 1000 edge_8_12_0_0 <= 0
 inactive_no_flow_8_21_0_0: flow_8_21_0_0 - 1000 edge_8_21_0_0 <= 0
 inactive_no_flow_12_2_0_0: flow_12_2_0_0 - 1000 edge_12_2_0_0 <= 0
 inactive_no_flow_12_3_0_0: flow_12_3_0_0 - 1000 edge_12_3_0_0 <= 0
 inactive_no_flow_12_4_0_0: flow_12_4_0_0 - 1000 edge_12_4_0_0 <= 0
 inactive_no_flow_12_5_0_0: flow_12_5_0_0 - 1000 edge_12_5_0_0 <= 0
 inactive_no_flow_12_6_0_0: flow_12_6_0_0 - 1000 edge_12_6_0_0 <= 0
 inactive_no_flow_12_7_0_0: flow_12_7_0_0 - 1000 edge_12_7_0_0 <= 0
 inactive_no_flow_12_8_0_0: flow_12_8_0_0 - 1000 edge_12_8_0_0 <= 0
 inactive_no_flow_12_13_0_0: flow_12_13_0_0 - 1000 edge_12_13_0_0 <= 0
 inactive_no_flow_12_15_0_0: flow_12_15_0_0 - 1000 edge_12_15_0_0 <= 0
 inactive_no_flow_12_16_0_0: flow_12_16_0_0 - 1000 edge_12_16_0_0 <= 0
 inactive_no_flow_12_21_0_0: flow_12_21_0_0 - 1000 edge_12_21_0_0 <= 0
 inactive_no_flow_12_22_0_0: flow_12_22_0_0 - 1000 edge_12_22_0_0 <= 0
 inactive_no_flow_12_24_0_0: flow_12_24_0_0 - 1000 edge_12_24_0_0 <= 0
 inactive_no_flow_12_25_0_0: flow_12_25_0_0 - 1000 edge_12_25_0_0 <= 0
 inactive_no_flow_13_1_0_0: flow_13_1_0_0 - 1000 edge_13_1_0_0 <= 0
 inactive_no_flow_13_2_0_0: flow_13_2_0_0 - 1000 edge_13_2_0_0 <= 0
 inactive_no_flow_13_4_0_0: flow_13_4_0_0 - 1000 edge_13_4_0_0 <= 0
 inactive_no_flow_13_5_0_0: flow_13_5_0_0 - 1000 edge_13_5_0_0 <= 0
 inactive_no_flow_13_7_0_0: flow_13_7_0_0 - 1000 edge_13_7_0_0 <= 0
 inactive_no_flow_13_8_0_0: flow_13_8_0_0 - 1000 edge_13_8_0_0 <= 0
 inactive_no_flow_13_12_0_0: flow_13_12_0_0 - 1000 edge_13_12_0_0 <= 0
 inactive_no_flow_13_15_0_0: flow_13_15_0_0 - 1000 edge_13_15_0_0 <= 0
 inactive_no_flow_13_16_0_0: flow_13_16_0_0 - 1000 edge_13_16_0_0 <= 0
 inactive_no_flow_13_22_0_0: flow_13_22_0_0 - 1000 edge_13_22_0_0 <= 0
 inactive_no_flow_16_1_0_0: flow_16_1_0_0 - 1000 edge_16_1_0_0 <= 0
 inactive_no_flow_16_2_0_0: flow_16_2_0_0 - 1000 edge_16_2_0_0 <= 0
 inactive_no_flow_16_3_0_0: flow_16_3_0_0 - 1000 edge_16_3_0_0 <= 0
 inactive_no_flow_16_4_0_0: flow_16_4_0_0 - 1000 edge_16_4_0_0 <= 0
 inactive_no_flow_16_5_0_0: flow_16_5_0_0 - 1000 edge_16_5_0_0 <= 0
 inactive_no_flow_16_6_0_0: flow_16_6_0_0 - 1000 edge_16_6_0_0 <= 0
 inactive_no_flow_16_7_0_0: flow_16_7_0_0 - 1000 edge_16_7_0_0 <= 0
 inactive_no_flow_16_8_0_0: flow_16_8_0_0 - 1000 edge_16_8_0_0 <= 0
 inactive_no_flow_16_12_0_0: flow_16_12_0_0 - 1000 edge_16_12_0_0 <= 0
 inactive_no_flow_16_13_0_0: flow_16_13_0_0 - 1000 edge_16_13_0_0 <= 0
 inactive_no_flow_16_15_0_0: flow_16_15_0_0 - 1000 edge_16_15_0_0 <= 0
 inactive_no_flow_16_21_0_0: flow_16_21_0_0 - 1000 edge_16_21_0_0 <= 0
 inactive_no_flow_16_22_0_0: flow_16_22_0_0 - 1000 edge_16_22_0_0 <= 0
 inactive_no_flow_16_24_0_0: flow_16_24_0_0 - 1000 edge_16_24_0_0 <= 0
 inactive_no_flow_16_25_0_0: flow_16_25_0_0 - 1000 edge_16_25_0_0 <= 0
 inactive_no_flow_21_24_0_0: flow_21_24_0_0 - 1000 edge_21_24_0_0 <= 0
 inactive_no_flow_21_25_0_0: flow_21_25_0_0 - 1000 edge_21_25_0_0 <= 0
 inactive_no_flow_22_8_0_0: flow_22_8_0_0 - 1000 edge_22_8_0_0 <= 0
 inactive_no_flow_22_12_0_0: flow_22_12_0_0 - 1000 edge_22_12_0_0 <= 0
 inactive_no_flow_22_13_0_0: flow_22_13_0_0 - 1000 edge_22_13_0_0 <= 0
 inactive_no_flow_22_16_0_0: flow_22_16_0_0 - 1000 edge_22_16_0_0 <= 0
 inactive_no_flow_22_21_0_0: flow_22_21_0_0 - 1000 edge_22_21_0_0 <= 0
 inactive_no_flow_22_24_0_0: flow_22_24_0_0 - 1000 edge_22_24_0_0 <= 0
 inactive_no_flow_22_25_0_0: flow_22_25_0_0 - 1000 edge_22_25_0_0 <= 0
 inactive_no_flow_24_1_0_0: flow_24_1_0_0 - 1000 edge_24_1_0_0 <= 0
 inactive_no_flow_24_3_0_0: flow_24_3_0_0 - 1000 edge_24_3_0_0 <= 0
 inactive_no_flow_24_12_0_0: flow_24_12_0_0 - 1000 edge_24_12_0_0 <= 0
 inactive_no_flow_24_15_0_0: flow_24_15_0_0 - 1000 edge_24_15_0_0 <= 0
 inactive_no_flow_24_21_0_0: flow_24_21_0_0 - 1000 edge_24_21_0_0 <= 0
 inactive_no_flow_24_22_0_0: flow_24_22_0_0 - 1000 edge_24_22_0_0 <= 0
 inactive_no_flow_24_25_0_0: flow_24_25_0_0 - 1000 edge_24_25_0_0 <= 0
 inactive_no_flow_25_24_0_0: flow_25_24_0_0 - 1000 edge_25_24_0_0 <= 0
Bounds
Binaries
 edge_0_1_0_0 edge_0_2_0_0 edge_0_3_0_0 edge_0_4_0_0 edge_0_5_0_0
 edge_0_6_0_0 edge_0_7_0_0 edge_0_13_0_0 edge_0_16_0_0 edge_1_2_0_0
 edge_1_3_0_0 edge_1_4_0_0 edge_1_5_0_0 edge_1_6_0_0 edge_1_7_0_0
 edge_1_8_0_0 edge_1_12_0_0 edge_1_13_0_0 edge_1_15_0_0 edge_1_16_0_0
 edge_1_21_0_0 edge_1_22_0_0 edge_1_24_0_0 edge_1_25_0_0 edge_2_1_0_0
 edge_2_3_0_0 edge_2_4_0_0 edge_2_5_0_0 edge_2_6_0_0 edge_2_7_0_0
 edge_2_8_0_0 edge_2_12_0_0 edge_2_13_0_0 edge_2_15_0_0 edge_2_16_0_0
 edge_2_21_0_0 edge_2_22_0_0 edge_2_24_0_0 edge_3_1_0_0 edge_3_2_0_0
 edge_3_4_0_0 edge_3_5_0_0 edge_3_6_0_0 edge_3_7_0_0 edge_4_1_0_0
 edge_4_2_0_0 edge_4_3_0_0 edge_4_5_0_0 edge_4_6_0_0 edge_4_7_0_0
 edge_4_8_0_0 edge_4_12_0_0 edge_4_13_0_0 edge_4_15_0_0 edge_4_16_0_0
 edge_4_22_0_0 edge_4_25_0_0 edge_5_1_0_0 edge_5_2_0_0 edge_5_3_0_0
 edge_5_4_0_0 edge_5_6_0_0 edge_5_7_0_0 edge_6_1_0_0 edge_6_2_0_0
 edge_6_3_0_0 edge_6_4_0_0 edge_6_5_0_0 edge_6_7_0_0 edge_6_13_0_0
 edge_6_16_0_0 edge_7_1_0_0 edge_7_2_0_0 edge_7_3_0_0 edge_7_4_0_0
 edge_7_5_0_0 edge_7_6_0_0 edge_7_8_0_0 edge_7_12_0_0 edge_7_13_0_0
 edge_7_15_0_0 edge_7_16_0_0 edge_7_21_0_0 edge_7_22_0_0 edge_7_24_0_0
 edge_7_25_0_0 edge_8_12_0_0 edge_8_21_0_0 edge_12_2_0_0 edge_12_3_0_0
 edge_12_4_0_0 edge_12_5_0_0 edge_12_6_0_0 edge_12_7_0_0 edge_12_8_0_0
 edge_12_13_0_0 edge_12_15_0_0 edge_12_16_0_0 edge_12_21_0_0 edge_12_22_0_0
 edge_12_24_0_0 edge_12_25_0_0 edge_13_1_0_0 edge_13_2_0_0 edge_13_4_0_0
 edge_13_5_0_0 edge_13_7_0_0 edge_13_8_0_0 edge_13_12_0_0 edge_13_15_0_0
 edge_13_16_0_0 edge_13_22_0_0 edge_16_1_0_0 edge_16_2_0_0 edge_16_3_0_0
 edge_16_4_0_0 edge_16_5_0_0 edge_16_6_0_0 edge_16_7_0_0 edge_16_8_0_0
 edge_16_12_0_0 edge_16_13_0_0 edge_16_15_0_0 edge_16_21_0_0 edge_16_22_0_0
 edge_16_24_0_0 edge_16_25_0_0 edge_21_24_0_0 edge_21_25_0_0 edge_22_8_0_0
 edge_22_12_0_0 edge_22_13_0_0 edge_22_16_0_0 edge_22_21_0_0 edge_22_24_0_0
 edge_22_25_0_0 edge_24_1_0_0 edge_24_3_0_0 edge_24_12_0_0 edge_24_15_0_0
 edge_24_21_0_0 edge_24_22_0_0 edge_24_25_0_0 edge_25_24_0_0
End
